mixintcount/benchmarks/random_v2l/4_4_7079.smt2
(set-logic QF_LIA)
(set-info :ran/ran2.smt2)
(set-info :smt-lib-version 2.0)
(declare-fun x1 () Int)
(declare-fun x2 () Int)
(declare-fun x3 () Int)
(declare-fun x4 () Int)
(assert (<= (+ (* 3 x1) (* 7 x2) (* 3 x3) (* 9 x4) ) (- 4472)))
(assert (<= (+ (* (- 5) x1) (* (- 6) x2) (* 0 x3) (* 4 x4) ) (- 1243)))
(assert (<= (+ (* (- 5) x1) (* (- 2) x2) (* 1 x3) (* 9 x4) ) 3884))
(assert (<= (+ (* 2 x1) (* (- 7) x2) (* 10 x3) (* 5 x4) ) (- 3890)))
(assert (<= (+ (* (- 3) x1) (* 0 x2) (* 2 x3) (* (- 6) x4) ) (- 2376)))
(assert (<= (+ (* (- 1) x1) (* 1 x2) (* 0 x3) (* 6 x4) ) 6017))
(assert (<= (+ (* 1 x1) (* (- 1) x2) (* 6 x3) (* (- 6) x4) ) (- 5860)))
(assert (<= (+ (* (- 10) x1) (* (- 1) x2) (* 1 x3) (* 0 x4) ) (- 5761)))
(assert (<= (+ (* 1 x1) (* 0 x2) (* 0 x3) (* 0 x4) ) 7079))
(assert (<= (+ (* (- 1) x1) (* 0 x2) (* 0 x3) (* 0 x4) ) 7079))
(assert (<= (+ (* 0 x1) (* 1 x2) (* 0 x3) (* 0 x4) ) 7079))
(assert (<= (+ (* 0 x1) (* (- 1) x2) (* 0 x3) (* 0 x4) ) 7079))
(assert (<= (+ (* 0 x1) (* 0 x2) (* 1 x3) (* 0 x4) ) 7079))
(assert (<= (+ (* 0 x1) (* 0 x2) (* (- 1) x3) (* 0 x4) ) 7079))
(assert (<= (+ (* 0 x1) (* 0 x2) (* 0 x3) (* 1 x4) ) 7079))
(assert (<= (+ (* 0 x1) (* 0 x2) (* 0 x3) (* (- 1) x4) ) 7079))
