mixintcount/benchmarks/random_v2l/4_4_7079.in
16 6
#	x1	x2	x3	x4;		0 = Real; 1 = Integer
	1	1	1	1
1	3	7	3	9	-4472
1	-5	-6	0	4	-1243
1	-5	-2	1	9	3884
1	2	-7	10	5	-3890
1	-3	0	2	-6	-2376
1	-1	1	0	6	6017
1	1	-1	6	-6	-5860
1	-10	-1	1	0	-5761
1	1	0	0	0	7079
1	-1	0	0	0	7079
1	0	1	0	0	7079
1	0	-1	0	0	7079
1	0	0	1	0	7079
1	0	0	-1	0	7079
1	0	0	0	1	7079
1	0	0	0	-1	7079
